p cnf 72 266
1 2 -3 0
-1 -2 -3 0
1 -2 3 0
-1 2 3 0
7 6 0
7 -5 0
-6 5 -7 0
8 -5 0
8 -7 0
5 7 -8 0
8 -9 -10 0
-8 9 -10 0
8 9 10 0
-8 -9 10 0
-11 -4 0
-11 10 0
4 -10 11 0
-12 9 0
-12 -9 0
-14 -12 0
-14 13 0
12 -13 14 0
-15 -11 0
-15 -14 0
11 14 15 0
3 -15 -16 0
-3 15 -16 0
3 15 16 0
-3 -15 16 0
17 9 0
17 -5 0
-9 5 -17 0
-19 6 -20 0
19 -6 -20 0
-19 -6 20 0
19 6 20 0
21 -18 0
21 -20 0
18 20 -21 0
-22 3 0
-22 21 0
-3 -21 22 0
17 22 -23 0
-17 -22 -23 0
17 -22 23 0
-17 22 23 0
24 -22 0
24 14 0
22 -14 -24 0
-25 19 0
-25 -13 0
-19 13 25 0
26 -25 0
26 -18 0
25 18 -26 0
-27 26 0
-27 -20 0
-26 20 27 0
-28 -27 0
-28 -6 0
27 6 28 0
-29 -28 0
-29 19 0
28 -19 29 0
-30 -24 0
-30 29 0
24 -29 30 0
15 -8 -31 0
-15 8 -31 0
15 8 31 0
-15 -8 31 0
-32 -1 0
-32 9 0
1 -9 32 0
-32 -2 -33 0
32 2 -33 0
-32 2 33 0
32 -2 33 0
34 -26 0
34 4 0
26 -4 -34 0
33 -34 -35 0
-33 34 -35 0
33 34 35 0
-33 -34 35 0
36 -35 0
36 -15 0
35 15 -36 0
37 13 0
37 12 0
-13 -12 -37 0
-38 37 0
-38 8 0
-37 -8 38 0
-39 2 0
-39 -38 0
-2 38 39 0
40 36 0
40 -39 0
-36 39 -40 0
41 4 0
41 12 0
-4 -12 -41 0
-25 -41 -42 0
25 41 -42 0
-25 41 42 0
25 -41 42 0
-43 -40 0
-43 -42 0
40 42 43 0
31 43 -44 0
-31 -43 -44 0
31 -43 44 0
-31 43 44 0
-2 45 0
2 45 0
45 5 -46 0
-45 -5 -46 0
45 -5 46 0
-45 5 46 0
46 41 -47 0
-46 -41 -47 0
46 -41 47 0
-46 41 47 0
-48 44 0
-48 47 0
-44 -47 48 0
49 -30 0
49 -48 0
30 48 -49 0
50 -18 0
50 -3 0
18 3 -50 0
2 12 -51 0
-2 -12 -51 0
2 -12 51 0
-2 12 51 0
-52 8 0
-52 -12 0
-8 12 52 0
53 -51 0
53 -52 0
51 52 -53 0
-50 -53 -54 0
50 53 -54 0
-50 53 54 0
50 -53 54 0
49 54 -55 0
-49 -54 -55 0
49 -54 55 0
-49 54 55 0
-56 23 0
-56 -55 0
-23 55 56 0
57 -16 0
57 56 0
16 -56 -57 0
-46 -10 -58 0
46 10 -58 0
-46 10 58 0
46 -10 58 0
-59 -39 0
-59 13 0
39 -13 59 0
-60 20 0
-60 -19 0
-20 19 60 0
59 60 -61 0
-59 -60 -61 0
59 -60 61 0
-59 60 61 0
-58 61 -62 0
58 -61 -62 0
-58 -61 62 0
58 61 62 0
-63 -13 0
-63 7 0
13 -7 63 0
26 22 -64 0
-26 -22 -64 0
26 -22 64 0
-26 22 64 0
-65 -63 0
-65 -64 0
63 64 65 0
62 65 -66 0
-62 -65 -66 0
62 -65 66 0
-62 65 66 0
-67 57 0
-67 66 0
-57 -66 67 0
-68 -20 0
-68 20 0
70 -33 0
70 -69 0
33 69 -70 0
-71 68 0
-71 70 0
-68 -70 71 0
67 71 -72 0
-67 -71 -72 0
67 -71 72 0
-67 71 72 0
-2 -50 -14 49 0
41 48 30 -17 0
-2 -29 0
8 42 21 0
42 -2 47 -8 46 54 0
-32 -6 -39 64 5 -43 0
-48 -54 72 44 6 0
-51 -58 0
-53 -31 63 -22 -47 0
72 50 68 -69 40 17 0
-29 -70 0
-13 2 0
58 6 1 -59 0
-37 16 -66 0
62 -10 16 -22 -14 12 0
-38 1 3 -56 -52 0
46 44 30 24 0
69 72 30 -64 14 0
-45 -51 35 -1 21 0
16 -70 -61 46 -8 33 0
33 53 36 0
32 4 0
12 39 33 56 0
61 13 0
49 27 -53 -3 -14 -33 0
5 1 6 0
7 -60 -38 0
28 36 -65 0
-43 -53 -8 7 -16 49 0
70 -28 -12 -11 -53 0
44 -13 0
-14 31 53 2 47 0
-11 -60 35 48 64 39 0
40 20 18 15 0
-8 -43 0
-20 -55 -38 62 0
46 52 -64 -14 -35 -53 0
5 55 57 0
-55 -64 25 0
31 27 -25 12 0
32 72 -44 0
59 -55 0
-1 8 25 -45 0
-13 -62 -47 0
-56 -66 28 -19 14 0
-55 26 0
-50 26 41 0
23 17 -28 -70 20 0
27 -55 0
-33 -36 70 -47 46 -9 0
-16 54 53 0
-15 32 -58 -48 38 0
-55 63 0
5 28 19 31 -49 0
23 53 -49 -2 0
-20 29 44 -50 51 0
-27 -38 39 66 0
-28 8 -22 10 0
-69 55 -64 0
37 -5 3 -67 -60 -7 0
62 -34 12 -52 -15 0
72 0
